(declare-fun x () Int)
(declare-fun y () Int)
(declare-fun p (Int Int Int Int Int Int) Bool)
(push)
(assert (p x y x y x y))
(check-sat)
(pop)
(push)
(assert (p x y x y x y))
(check-sat)
(get-model)
(pop)
(declare-fun a () Bool)
(declare-fun b () Bool)
(push)
(assert (not (= (and a b) (not (or (not a) (not b))))))
(check-sat)
(pop)
(declare-fun narda (Bool Int) Bool)
(push)
(assert (narda (p x y x y x y) x))
(check-sat)
(pop)
